<instance format="XCSP3" type="CSP">
  <variables>
    <var id="x0"> 1 3 11 14 15 17 </var>
    <var id="x1"> 1 3 11 12 15 </var>
    <var id="x2"> 1 3 15 </var>
    <var id="x3"> 11 12 14 15 </var>
    <var id="x4"> 0 11 12 </var>
    <var id="x5"> 11 17 </var>
    <var id="x6"> 0 1 12 14 </var>
    <var id="x7"> 0 11 14 </var>
    <var id="x8"> 4 7 8 11 </var>
    <var id="x9"> 7 11 </var>
    <var id="x10"> 11 16 </var>
    <var id="x11"> 2 7 8 16 </var>
    <var id="x12"> 2 6..8 16 </var>
    <var id="x13"> 2 4 11 </var>
    <var id="x14"> 0 2 6 </var>
    <var id="x15"> 0 6 16 </var>
    <var id="x16"> 3 11 14 15 17 </var>
    <var id="x17"> 3 11 15 </var>
    <var id="x18"> 2 7 11 </var>
    <var id="x19"> 2 9 11 17 </var>
    <var id="x20"> 2 3 7 15 </var>
    <var id="x21"> 3 14 15 17 </var>
    <var id="x22"> 2 9 14 </var>
    <var id="x23"> 2 11 14 </var>
    <var id="x24"> 7 8 10 </var>
    <var id="x25"> 7 13 17 </var>
    <var id="x26"> 7 8 10 16 </var>
    <var id="x27"> 8 10 16 17 </var>
    <var id="x28"> 8 14..16 </var>
    <var id="x29"> 7 10 14 16 17 </var>
    <var id="x30"> 10 14 15 17 </var>
    <var id="x31"> 13 14 16 </var>
    <var id="x32"> 3 9 11 13 </var>
    <var id="x33"> 2 3 13 14 16 </var>
    <var id="x34"> 2 9 11..14 </var>
    <var id="x35"> 2 11 14 16 </var>
    <var id="x36"> 2 9 11 13 </var>
    <var id="x37"> 2 9 14 16 </var>
    <var id="x38"> 3 12 14 </var>
    <var id="x39"> 9 13 14 16 </var>
    <var id="x40"> 3 5 11 </var>
    <var id="x41"> 2 3 8 16 </var>
    <var id="x42"> 2 5 11 14 </var>
    <var id="x43"> 5 8 11 16 </var>
    <var id="x44"> 0 8 11 </var>
    <var id="x45"> 2 3 5 8 </var>
    <var id="x46"> 3 5 14 </var>
    <var id="x47"> 0 2 5 11 14 16 </var>
    <var id="x48"> 9..11 </var>
    <var id="x49"> 3 11 15..17 </var>
    <var id="x50"> 2 3 15 16 </var>
    <var id="x51"> 9..11 16 17 </var>
    <var id="x52"> 10 11 </var>
    <var id="x53"> 2 3 10 15 </var>
    <var id="x54"> 2 9 10 </var>
    <var id="x55"> 9 15..17 </var>
    <var id="x56"> 3 6 11..13 </var>
    <var id="x57"> 3 6 7 16 </var>
    <var id="x58"> 9 11 16 </var>
    <var id="x59"> 11 16 </var>
    <var id="x60"> 7 11..13 </var>
    <var id="x61"> 7 9 16 </var>
    <var id="x62"> 3 6 7 </var>
    <var id="x63"> 6 9 12 </var>
    <var id="x64"> 4 7 10 </var>
    <var id="x65"> 1 7 13 17 </var>
    <var id="x66"> 1 13 15 17 </var>
    <var id="x67"> 4 7 10 17 </var>
    <var id="x68"> 1 10 12 15 17 </var>
    <var id="x69"> 1 10 12 </var>
    <var id="x70"> 13 15 17 </var>
    <var id="x71"> 4 13 </var>
    <var id="x72"> 1 13 15 </var>
    <var id="x73"> 5 8..10 </var>
    <var id="x74"> 2 8 15 </var>
    <var id="x75"> 2 5 9 13 </var>
    <var id="x76"> 2 5 8 10 15 </var>
    <var id="x77"> 1 2 9 10 </var>
    <var id="x78"> 9 13 15 </var>
    <var id="x79"> 2 5 13 </var>
    <var id="x80"> 2 7 13..15 </var>
    <var id="x81"> 2 4 7 11 </var>
    <var id="x82"> 4 11 </var>
    <var id="x83"> 2 4 7 14 </var>
    <var id="x84"> 2 7 15 </var>
    <var id="x85"> 1 14 15 </var>
    <var id="x86"> 13..15 </var>
    <var id="x87"> 2 4 11 13 14 </var>
    <var id="x88"> 1 9 11 13 </var>
    <var id="x89"> 2 13 14 </var>
    <var id="x90"> 1 6 11 13 </var>
    <var id="x91"> 2 6 11 </var>
    <var id="x92"> 1 2 6 </var>
    <var id="x93"> 0 2 11 14 </var>
    <var id="x94"> 0 11 13 </var>
    <var id="x95"> 0 2 11 13 14 </var>
    <var id="x96"> 4 5 7..9 11 </var>
    <var id="x97"> 7 8 16 </var>
    <var id="x98"> 8 11 </var>
    <var id="x99"> 4 7 8 11 16 </var>
    <var id="x100"> 7 8 11 </var>
    <var id="x101"> 4 7 9 16 </var>
    <var id="x102"> 5 </var>
    <var id="x103"> 4 5 7..9 </var>
    <var id="x104"> 14 17 </var>
    <var id="x105"> 7 8 14 </var>
    <var id="x106"> 5 9 14 </var>
    <var id="x107"> 4 5 8 9 17 </var>
    <var id="x108"> 0 4 8 14 </var>
    <var id="x109"> 5 7 8 </var>
    <var id="x110"> 0 9 14 17 </var>
    <var id="x111"> 5 13 </var>
    <var id="x112"> 2 8 13 15 </var>
    <var id="x113"> 8 13 15 </var>
    <var id="x114"> 2 8 15 </var>
    <var id="x115"> 2 5 13 15 </var>
    <var id="x116"> 2 4 5 13 </var>
    <var id="x117"> 2 10 </var>
    <var id="x118"> 5 8 10 </var>
    <var id="x119"> 3 5 13 17 </var>
    <var id="x120"> 6 8 10 </var>
    <var id="x121"> 3 6 8 15 </var>
    <var id="x122"> 5 13 15 </var>
    <var id="x123"> 8 15 </var>
    <var id="x124"> 8 10 13 </var>
    <var id="x125"> 10 17 </var>
    <var id="x126"> 2 16 </var>
    <var id="x127"> 1 6 </var>
    <var id="x128"> 2 4 6 10 16 </var>
    <var id="x129"> 2 5 </var>
    <var id="x130"> 4 5 10 16 </var>
    <var id="x131"> 2 4 10 16 </var>
    <var id="x132"> 2 5 6 10 </var>
    <var id="x133"> 11 14 16 </var>
    <var id="x134"> 6 8 11 12 </var>
    <var id="x135"> 6 8 10 11 16 </var>
    <var id="x136"> 5 11 12 14 </var>
    <var id="x137"> 8 11 14 16 </var>
    <var id="x138"> 5 11 </var>
    <var id="x139"> 5 10 12 14 </var>
    <var id="x140"> 6 14 16 </var>
  </variables>
  <constraints>
    <group>
      <allDifferent> %... </allDifferent>
      <args> x0 x1 x2 x3 x4 x5 x6 x7 </args>
      <args> x8 x9 x10 x11 x12 x13 x14 x15 </args>
      <args> x16 x17 x18 x19 x20 x21 x22 x23 </args>
      <args> x24 x25 x26 x27 x28 x29 x30 x31 </args>
      <args> x32 x33 x34 x35 x36 x37 x38 x39 </args>
      <args> x40 x41 x42 x43 x44 x45 x46 x47 </args>
      <args> x48 x49 x50 x51 x52 x53 x54 x55 </args>
      <args> x56 x57 x58 x59 x60 x61 x62 x63 </args>
      <args> x64 x65 x66 x67 x68 x69 x70 x71 </args>
      <args> x72 x73 x74 x75 x76 x77 x78 x79 </args>
      <args> x80 x81 x82 x83 x84 x85 x86 x87 </args>
      <args> x88 x89 x90 x91 x92 x93 x94 x95 </args>
      <args> x96 x97 x98 x99 x100 x101 x102 </args>
      <args> x103 x104 x105 x106 x107 x108 x109 x110 </args>
      <args> x111 x112 x113 x114 x115 x116 x117 </args>
      <args> x118 x119 x120 x121 x122 x123 x124 x125 </args>
      <args> x126 x127 x128 x129 x130 x131 x132 </args>
      <args> x133 x134 x135 x136 x137 x138 x139 x140 </args>
      <args> x8 x24 x48 x64 x96 x103 x118 </args>
      <args> x9 x25 x32 x40 x65 x88 x111 x119 </args>
      <args> x0 x10 x16 x49 x66 x72 x104 x133 </args>
      <args> x11 x33 x80 x89 x97 x105 x112 x126 </args>
      <args> x1 x17 x56 x90 x98 x113 x127 x134 </args>
      <args> x18 x26 x81 x91 x99 x120 x128 x135 </args>
      <args> x2 x12 x41 x50 x57 x92 x114 x121 </args>
      <args> x3 x34 x42 x106 x115 x122 x129 x136 </args>
      <args> x27 x43 x51 x58 x73 x82 x107 x130 </args>
      <args> x28 x35 x59 x74 x93 x108 x123 x137 </args>
      <args> x4 x44 x52 x60 x94 x100 x124 </args>
      <args> x5 x13 x19 x36 x75 x116 x138 </args>
      <args> x29 x37 x61 x67 x83 x101 x125 x131 </args>
      <args> x20 x45 x53 x62 x76 x84 x109 x132 </args>
      <args> x21 x30 x38 x46 x68 x85 x102 x139 </args>
      <args> x6 x14 x22 x54 x63 x69 x77 x117 </args>
      <args> x15 x39 x55 x70 x78 x86 x110 x140 </args>
      <args> x7 x23 x31 x47 x71 x79 x87 x95 </args>
    </group>
  </constraints>
</instance>

